218.0
224.8
217.8
216.2
205.8
228.0
227.8
inf
224.6
224.0
224.8
222.2
224.4
219.4
222.6
227.2
223.8
220.6
227.4
206.0
228.2
228.0
216.4
219.4
219.6
219.2
209.4
inf
224.4
216.8
223.6
206.2
206.2
206.4
206.0
206.0
205.8
206.0
206.0
206.0
206.2
206.0
206.0
206.4
205.8
206.0
205.6
206.0
206.0
206.0
206.0
